32      4       
15      19      12      20      
0       0       0       0       0       5       2       4       6       7       17      
3       0       0       5       20      4       3       5       8       10      
9       0       0       4       20      4       11      12      15      23      
10      0       0       4       13      3       9       10      13      
10      9       1       0       0       5       11      13      14      23      31      
5       1       10      0       0       4       10      15      16      20      
10      0       0       9       13      3       10      20      23      
7       0       0       10      10      4       12      14      21      23      
9       12      0       0       6       6       14      20      21      23      29      30      
9       10      18      0       0       5       14      21      29      30      31      
10      7       0       11      0       5       16      18      20      28      29      
7       1       6       0       0       6       19      22      28      29      30      31      
4       0       19      7       0       5       19      20      22      28      29      
2       0       0       3       7       4       18      19      27      28      
3       1       0       4       0       4       21      26      27      28      
6       0       14      9       0       4       22      24      26      30      
9       8       6       0       0       4       22      24      27      31      
3       0       16      0       1       2       22      24      
1       5       1       0       0       2       24      26      
7       12      0       0       2       2       24      27      
3       11      9       0       0       2       24      25      
3       12      0       12      0       1       25      
2       0       0       9       15      1       25      
10      13      7       0       0       1       32      
2       0       17      0       20      1       32      
9       0       10      1       0       1       32      
2       0       1       0       3       1       32      
8       0       8       0       5       1       32      
8       0       0       1       11      1       32      
10      10      0       0       4       1       32      
4       1       0       1       0       1       32      
0       0       0       0       0       0       
